
mapping with 16 threads...

 0:00:01.70 Mapping INCOV068-BL.extracted.fq.gz to NUC reference...

 0:11:42.43 Generating binary hit matrix.
0:11:42.47 Loading /labs/khatrilab/solomonb/covid/isb/optitype/INCOV068-BL_1.bam started. Number of HLA reads loaded (updated every thousand):
1K...2K...3K...4K...5K...6K...7K...8K...9K...10K...11K...12K...13K...14K...15K...16K...17K...18K...19K...20K...21K...22K...23K...24K...25K...26K...27K...28K...29K...30K...31K...32K...33K...34K...35K...36K...37K...38K...39K...40K...41K...42K...43K...44K...45K...46K...47K...48K...49K...50K...51K...52K...53K...54K...55K...56K...57K...58K...59K...60K...61K...62K...63K...64K...65K...66K...67K...68K...69K...70K...71K...72K...73K...74K...75K...76K...77K...78K...79K...80K...81K...82K...83K...84K...85K...86K...87K...88K...89K...90K...91K...92K...93K...94K...95K...96K...97K...98K...99K...100K...101K...102K...103K...104K...105K...106K...107K...108K...109K...110K...111K...112K...113K...114K...115K...116K...117K...118K...119K...120K...121K...122K...123K...124K...125K...126K...127K...128K...129K...130K...131K...132K...133K...134K...135K...136K...137K...138K...139K...140K...141K...142K...143K...144K...145K...146K...147K...148K...149K...150K...151K...152K...153K...154K...155K...156K...157K...158K...159K...160K...161K...162K...163K...164K...165K...166K...167K...168K...169K...170K...171K...172K...173K...174K...175K...176K...177K...178K...179K...180K...181K...182K...183K...184K...185K...186K...187K...188K...189K...190K...191K...192K...193K...194K...195K...196K...197K...198K...199K...200K...201K...202K...203K...204K...205K...206K...207K...208K...209K...210K...211K...212K...213K...214K...215K...216K...217K...218K...219K...220K...221K...222K...223K...224K...225K...226K...227K...228K...229K...230K...231K...232K...233K...234K...235K...236K...237K...238K...239K...240K...241K...242K...243K...244K...245K...246K...247K...248K...249K...250K...251K...252K...253K...254K...255K...256K...257K...258K...259K...
 0:13:17.01 259986 reads loaded. Creating dataframe...
0:40:38.20 Dataframes created. Shape: 259986 x 7339, hits: 79562302 (80382625), sparsity: 1 in 23.74

 0:42:29.48 temporary pruning of identical rows and columns

 0:42:38.00 Size of mtx with unique rows and columns: (2323, 1448)
0:42:38.00 determining minimal set of non-overshadowed alleles

 0:42:56.89 Keeping only the minimal number of required alleles (601,)

 0:42:58.19 Creating compact model...

starting ilp solver with 1 threads...

 0:45:17.66 Initializing OptiType model...
GLPSOL: GLPK LP/MIP Solver, v4.57
Parameter(s) specified in the command line:
 --write /tmp/tmpUyZp0r.glpk.raw --wglp /tmp/tmp2LV9D6.glpk.glp --cpxlp /tmp/tmprTnolN.pyomo.lp
Reading problem data from '/tmp/tmprTnolN.pyomo.lp'...
/tmp/tmprTnolN.pyomo.lp:114788: warning: lower bound of variable 'x7107' redefined
/tmp/tmprTnolN.pyomo.lp:114788: warning: upper bound of variable 'x7107' redefined
7106 rows, 4149 columns, 85767 non-zeros
2374 integer variables, all of which are binary
117162 lines were read
Writing problem data to '/tmp/tmp2LV9D6.glpk.glp'...
109452 lines were written
GLPK Integer Optimizer, v4.57
7106 rows, 4149 columns, 85767 non-zeros
2374 integer variables, all of which are binary
Preprocessing...
1608 hidden covering inequaliti(es) were detected
7099 rows, 4146 columns, 85756 non-zeros
2372 integer variables, all of which are binary
Scaling...
 A: min|aij| =  1.000e+00  max|aij| =  6.000e+00  ratio =  6.000e+00
Problem data seem to be well scaled
Constructing initial basis...
Size of triangular part is 7099
Solving LP relaxation...
GLPK Simplex Optimizer, v4.57
7099 rows, 4146 columns, 85756 non-zeros
      0: obj =  -0.000000000e+00 inf =   4.000e+00 (4)
      4: obj =  -0.000000000e+00 inf =   0.000e+00 (0)
*   500: obj =   2.151293120e+05 inf =   0.000e+00 (1593) 1
*  1000: obj =   2.180271973e+05 inf =   0.000e+00 (1279)
*  1500: obj =   2.184350860e+05 inf =   2.220e-16 (1099)
*  2000: obj =   2.186744193e+05 inf =   2.220e-16 (964)
*  2500: obj =   2.190329667e+05 inf =   8.882e-16 (586)
*  3000: obj =   2.191906333e+05 inf =   8.882e-16 (86)
*  3087: obj =   2.192177520e+05 inf =   1.776e-15 (0)
OPTIMAL LP SOLUTION FOUND
Integer optimization begins...
+  3087: mip =     not found yet <=              +inf        (1; 0)
+  3087: >>>>>   2.192177520e+05 <=   2.192177520e+05   0.0% (1; 0)
+  3087: mip =   2.192177520e+05 <=     tree is empty   0.0% (0; 1)
INTEGER OPTIMAL SOLUTION FOUND
Time used:   0.8 secs
Memory used: 18.1 Mb (18949696 bytes)
Writing MIP solution to '/tmp/tmpUyZp0r.glpk.raw'...
11257 lines were written

 0:45:27.25 Result dataframe has been constructed...
